c ---- [ banner ] ------------------------------------------------------------
c
c Kissat SAT Solver
c 
c Copyright (c) 2021-2024 Armin Biere University of Freiburg
c Copyright (c) 2019-2021 Armin Biere Johannes Kepler University Linz
c 
c Version 4.0.1 43f02cf3e992cb44653b35e5cb26f93281552ae0
c gcc (Ubuntu 13.2.0-23ubuntu4) 13.2.0 -W -Wall -O3 -DNDEBUG
c Thu Sep 12 12:27:46 CEST 2024 Linux abryzen9 6.8.0-41-generic x86_64
c
c ---- [ parsing ] -----------------------------------------------------------
c
c opened and reading DIMACS file:
c
c   /data/artifact/AMulet2.0_artifact/exp4/cnf_mfs_64/64_64_U_SP_WT_RC_GenMul_mfs.cnf
c
c parsed 'p cnf 36378 141587' header
c closing input after reading 2758220 bytes (3 MB)
c finished parsing after 0.04 seconds
c
c ---- [ options ] -----------------------------------------------------------
c
c --stable=0                       (different from default '1')
c
c ---- [ solving ] -----------------------------------------------------------
c
c  seconds switched rate     size/glue tier1  binary           remaining
c         MB reductions conflicts size  tier2     irredundant
c          level restarts redundant glue  trail           variables
c
c *  0.04 11 0 0 0  0 0   0   0 0.0 0 0 0 0 0% 29164 112421 36375 100%
c (  0.07 13 0 0 0  0 0   0   0 0.0 0 0 0 0 0% 29164 112421 36375 100%
c .  0.08 13 0 0 0  0 0   0   0 0.0 0 0 0 0 0% 29160 112421 36375 100%
c c  0.19 21 0 0 0  0 0   0   0 0.0 0 0 0 0 0% 36384 98189 32761 90%
c d  0.20 21 0 0 0  0 0   0   0 0.0 0 0 0 0 0% 29156 98189 32761 90%
c =  0.27 22 0 0 0  0 0   0   0 0.0 0 0 0 0 0% 29536 98189 32499 89%
c d  0.27 22 0 0 0  0 0   0   0 0.0 0 0 0 0 0% 29012 98189 32499 89%
c f  0.39 20 0 0 0  0 0   0   0 0.0 0 0 0 0 0% 32045 93333 34313 94%
c e  0.56 28 0 0 0  0 0   0   0 0.0 0 0 0 0 0% 10150 107578 23121 64%
c )  0.56 28 0 0 0  0 0   0   0 0.0 0 0 0 0 0% 10150 107578 23121 64%
c {  0.58 28 0 0 0  0 0   0   0 0.0 0 0 2 6 0% 10150 107578 23121 64%
c -  0.79 30 120 0 1 226 24 1000 757 1.8 9 5 3 10 20% 10208 107573 23121 64%
c -  1.18 30 157 0 2 440 32 2000 1523 3.5 20 6 3 11 24% 10219 107573 23121 64%
c c  1.38 23 160 0 2 487 31 2503 1987 3.2 18 6 3 11 25% 10230 107566 23119 64%
c d  1.39 23 160 0 2 487 31 2503 1987 3.2 18 6 3 11 25% 10226 107566 23119 64%
c u  1.42 23 160 0 2 487 31 2503 1577 3.2 18 6 3 11 25% 10235 107566 23119 64%
c v  1.45 23 160 0 2 487 31 2503 1389 3.2 18 6 3 11 25% 10235 107566 23119 64%
c w  1.46 23 160 0 2 487 31 2503 1387 3.2 18 6 3 11 25% 10235 107566 23119 64%
c x  1.48 23 160 0 2 487 31 2503 1387 3.2 18 6 3 11 25% 10332 107368 23119 64%
c =  1.58 26 160 0 2 487 31 2503 1387 3.2 18 6 3 11 25% 10716 107368 22927 63%
c
c  seconds   switched   rate       size/glue tier1     binary           remaining
c         MB  reductions conflicts       size  tier2       irredundant
c           level restarts    redundant    glue    trail           variables
c
c d  1.58 26 160 0 2 487 31 2503 1387 3.2 18 6 3 11 25% 10332 107368 22927 63%
c t  1.60 26 160 0 2 487 31 2503 1387 3.2 18 6 3 11 25% 10328 107368 22927 63%
c f  1.64 26 160 0 2 487 31 2503 1387 3.2 18 6 3 11 25% 11114 105890 23615 65%
c u  1.68 26 160 0 2 487 31 2503 1329 3.2 18 6 3 11 25% 11114 105890 23615 65%
c v  1.71 26 160 0 2 487 31 2503 1258 3.2 18 6 3 11 25% 11114 105890 23615 65%
c w  1.74 26 160 0 2 487 31 2503 1256 3.2 18 6 3 11 25% 11114 105890 23615 65%
c x  1.76 26 160 0 2 487 31 2503 1256 3.2 18 6 3 11 25% 11120 105450 23615 65%
c =  1.86 26 160 0 2 487 31 2503 1256 3.2 18 6 3 11 25% 11530 105450 23410 64%
c d  1.87 26 160 0 2 487 31 2503 1250 3.2 18 6 3 11 25% 11068 105450 23410 64%
c f  1.93 26 160 0 2 487 31 2503 1250 3.2 18 6 3 11 25% 11507 104791 23630 65%
c -  2.18 28 174 0 3 611 33 3414 1798 3.4 19 6 3 10 25% 11539 104785 23630 65%
c -  2.77 28 193 0 4 844 33 5146 2915 4.4 25 6 2 8 24% 11578 104783 23630 65%
c -  3.23 28 253 0 5 1031 34 7146 4075 4.4 25 6 2 8 24% 11665 104783 23630 65%
c c  3.37 28 280 0 5 1055 34 7709 4520 4.3 24 6 2 8 23% 11711 104718 23613 65%
c d  3.38 28 280 0 5 1055 34 7709 4520 4.3 24 6 2 8 23% 11677 104718 23613 65%
c u  3.41 28 280 0 5 1055 34 7709 3516 4.3 24 6 2 8 23% 11686 104718 23613 65%
c v  3.44 28 280 0 5 1055 34 7709 3069 4.3 24 6 2 8 23% 11686 104718 23613 65%
c w  3.47 28 280 0 5 1055 34 7709 3064 4.3 24 6 2 8 23% 11686 104718 23613 65%
c x  3.50 28 280 0 5 1055 34 7709 3064 4.3 24 6 2 8 23% 11732 102411 23613 65%
c =  3.64 28 280 0 5 1055 34 7709 3064 4.3 24 6 2 8 23% 12652 102411 23153 64%
c
c  seconds   switched    rate       size/glue tier1    binary           remaining
c         MB  reductions  conflicts       size  tier2      irredundant
c           level  restarts    redundant    glue   trail           variables
c
c d  3.65 28 280 0 5 1055 34 7709 3064 4.3 24 6 2 8 23% 11640 102411 23153 64%
c t  3.67 28 280 0 5 1055 34 7709 3064 4.3 24 6 2 8 23% 11635 102411 23153 64%
c f  3.71 28 280 0 5 1055 34 7709 3064 4.3 24 6 2 8 23% 13717 99271 24199 67%
c u  3.76 28 280 0 5 1055 34 7709 2835 4.3 24 6 2 8 23% 13718 99271 24199 67%
c v  3.79 28 280 0 5 1055 34 7709 2733 4.3 24 6 2 8 23% 13718 99271 24199 67%
c w  3.81 28 280 0 5 1055 34 7709 2732 4.3 24 6 2 8 23% 13718 99271 24199 67%
c x  3.87 28 280 0 5 1055 34 7709 2732 4.3 24 6 2 8 23% 13790 94989 24199 67%
c =  4.01 28 280 0 5 1055 34 7709 2732 4.3 24 6 2 8 23% 14284 94989 23952 66%
c d  4.02 28 280 0 5 1055 34 7709 2730 4.3 24 6 2 8 23% 13708 94989 23952 66%
c t  4.04 28 280 0 5 1055 34 7709 2730 4.3 24 6 2 8 23% 13679 94989 23952 66%
c f  4.09 28 280 0 5 1055 34 7709 2730 4.3 24 6 2 8 23% 13689 94974 23957 66%
c -  4.60 28 287 0 6 1210 34 9383 3681 4.3 24 6 2 8 24% 13745 94974 23957 66%
c o  4.83 28 296 0 6 1285 34 10144 4320 4.4 25 6 2 8 24% 13787 94974 23957 66%
c -  5.63 28 292 0 7 1585 37 11834 5191 4.7 29 6 2 7 25% 13825 94973 23957 66%
c s  5.83 28 302 0 7 1623 37 12511 5811 4.6 28 6 2 7 25% 13858 94006 23957 66%
c e  5.96 28 302 0 7 1623 37 12511 5811 4.6 28 6 2 7 25% 11467 95682 22242 61%
c s  5.97 28 302 0 7 1623 37 12511 5811 4.6 28 6 2 7 25% 11468 94509 22242 61%
c e  5.99 28 302 0 7 1623 37 12511 5811 4.6 28 6 2 7 25% 11467 94510 22241 61%
c ^  5.99 28 302 0 7 1623 37 12511 5811 4.6 28 6 2 7 25% 11467 94510 22241 61%
c -  6.44 28 299 0 8 1760 36 14480 5939 4.5 28 6 2 7 25% 11544 94498 22241 61%
c
c  seconds   switched    rate        size/glue tier1    binary          remaining
c         MB  reductions   conflicts       size  tier2      irredundant
c           level  restarts     redundant    glue   trail          variables
c
c d  6.91 28 300 0 8 1924 37 15786 7011 4.6 29 6 2 7 26% 11358 94495 22094 61%
c u  6.96 28 300 0 8 1924 37 15786 5620 4.6 29 6 2 7 26% 11370 94495 22094 61%
c v  7.00 28 300 0 8 1924 37 15786 4905 4.6 29 6 2 7 26% 11372 94495 22094 61%
c w  7.12 28 300 0 8 1924 37 15786 4898 4.6 29 6 2 7 26% 11372 94495 22094 61%
c x  7.16 28 300 0 8 1924 37 15786 4898 4.6 29 6 2 7 26% 11388 94130 22094 61%
c =  7.42 28 300 0 8 1924 37 15786 4898 4.6 29 6 2 7 26% 13588 94130 20994 58%
c d  7.43 28 300 0 8 1924 37 15786 4807 4.6 29 6 2 7 26% 10887 94130 20994 58%
c t  7.45 28 300 0 8 1924 37 15786 4807 4.6 29 6 2 7 26% 10863 94130 20994 58%
c f  7.52 28 300 0 8 1924 37 15786 4807 4.6 29 6 2 7 26% 10874 94097 21004 58%
c u  7.61 28 300 0 8 1924 37 15786 4422 4.6 29 6 2 7 26% 10877 94097 21004 58%
c v  7.64 28 300 0 8 1924 37 15786 4322 4.6 29 6 2 7 26% 10877 94097 21004 58%
c w  7.77 28 300 0 8 1924 37 15786 4298 4.6 29 6 2 7 26% 10877 94097 21004 58%
c x  7.81 28 300 0 8 1924 37 15786 4296 4.6 29 6 2 7 26% 10893 92560 21004 58%
c =  8.07 28 300 0 8 1924 37 15786 4296 4.6 29 6 2 7 26% 12499 92560 20201 56%
c d  8.08 28 300 0 8 1924 37 15786 4271 4.6 29 6 2 7 26% 10597 92560 20201 56%
c t  8.10 28 300 0 8 1924 37 15786 4271 4.6 29 6 2 7 26% 10587 92560 20201 56%
c f  8.14 28 300 0 8 1924 37 15786 4271 4.6 29 6 2 7 26% 10590 92545 20206 56%
c -  8.39 28 299 0 9 2000 35 17308 4939 4.5 28 6 2 7 25% 10621 92545 20206 56%
c -  8.92 28 296 0 10 2165 34 20310 6881 4.1 27 6 2 7 25% 10661 92544 20206 56%
c o  8.96 28 292 0 10 2166 33 20966 7356 4.1 26 6 2 7 24% 10691 92544 20206 56%
c
c  seconds   switched     rate        size/glue tier1    binary          remaining
c         MB   reductions   conflicts       size  tier2      irredundant
c           level   restarts     redundant    glue   trail          variables
c
c -  9.42 28 294 0 11 2356 33 23473 8572 4.0 26 6 2 7 24% 10756 92541 20206 56%
c s  9.89 28 288 0 11 2485 32 25016 9922 4.1 26 6 2 7 24% 10791 91143 20206 56%
c e 10.04 28 288 0 11 2485 32 25016 9922 4.1 26 6 2 7 24% 9534 94585 17364 48%
c s 10.07 28 288 0 11 2485 32 25016 9922 4.1 26 6 2 7 24% 9579 90003 17364 48%
c e 10.12 28 288 0 11 2485 32 25016 9922 4.1 26 6 2 7 24% 9570 90021 17353 48%
c ^ 10.12 28 288 0 11 2485 32 25016 9922 4.1 26 6 2 7 24% 9570 90021 17353 48%
c - 10.54 28 276 0 12 2600 31 26792 8299 4.0 25 6 2 6 24% 9590 90021 17353 48%
c d 10.60 28 275 0 12 2611 31 26914 8400 4.0 25 6 2 6 24% 9531 90021 17312 48%
c u 10.65 28 275 0 12 2611 31 26914 6822 4.0 25 6 2 6 24% 9546 90021 17312 48%
c v 10.70 28 275 0 12 2611 31 26914 5929 4.0 25 6 2 6 24% 9549 90021 17312 48%
c w 10.71 28 275 0 12 2611 31 26914 5922 4.0 25 6 2 6 24% 9549 90021 17312 48%
c x 10.79 28 275 0 12 2611 31 26914 5920 4.0 25 6 2 6 24% 9582 87912 17312 48%
c = 11.01 28 275 0 12 2611 31 26914 5920 4.0 25 6 2 6 24% 11835 87912 16185 44%
c d 11.02 28 275 0 12 2611 31 26914 5752 4.0 25 6 2 6 24% 9487 87912 16183 44%
c t 11.04 28 275 0 12 2611 31 26914 5752 4.0 25 6 2 6 24% 9462 87912 16183 44%
c f 11.11 28 275 0 12 2611 31 26914 5752 4.0 25 6 2 6 24% 9460 87819 16203 45%
c u 11.15 28 275 0 12 2611 31 26914 5324 4.0 25 6 2 6 24% 9462 87819 16203 45%
c v 11.18 28 275 0 12 2611 31 26914 5205 4.0 25 6 2 6 24% 9462 87819 16203 45%
c w 11.19 28 275 0 12 2611 31 26914 5203 4.0 25 6 2 6 24% 9462 87819 16203 45%
c x 11.28 28 275 0 12 2611 31 26914 5203 4.0 25 6 2 6 24% 9474 79815 16203 45%
c
c  seconds   switched     rate        size/glue tier1    binary          remaining
c         MB   reductions   conflicts       size  tier2      irredundant
c           level   restarts     redundant    glue   trail          variables
c
c = 11.49 28 275 0 12 2611 31 26914 5203 4.0 25 6 2 6 24% 10670 79815 15605 43%
c d 11.49 28 275 0 12 2611 31 26914 5126 4.0 25 6 2 6 24% 9455 79815 15605 43%
c t 11.51 28 275 0 12 2611 31 26914 5126 4.0 25 6 2 6 24% 9409 79815 15605 43%
c f 11.55 28 275 0 12 2611 31 26914 5126 4.0 25 6 2 6 24% 9414 79795 15610 43%
c - 12.07 28 264 0 13 2795 30 30256 7267 3.8 24 6 2 6 24% 9456 79793 15610 43%
c - 12.71 28 256 0 14 3073 29 33861 9328 3.7 24 6 2 6 24% 9509 79793 15610 43%
c - 13.58 28 255 0 15 3480 29 37604 11065 3.7 24 7 2 6 24% 9556 79793 15610 43%
c d 14.01 28 256 0 15 3671 28 41246 14014 3.6 23 6 2 6 24% 9546 79791 15558 43%
c u 14.08 28 256 0 15 3671 28 41246 11839 3.6 23 6 2 6 24% 9565 79791 15558 43%
c v 14.15 28 256 0 15 3671 28 41246 10740 3.6 23 6 2 6 24% 9569 79791 15558 43%
c w 14.19 28 256 0 15 3671 28 41246 10740 3.6 23 6 2 6 24% 9569 79791 15558 43%
c x 14.25 28 256 0 15 3671 28 41246 10740 3.6 23 6 2 6 24% 9573 77833 15558 43%
c = 14.49 28 256 0 15 3671 28 41246 10740 3.6 23 6 2 6 24% 9715 77833 15487 43%
c d 14.50 28 256 0 15 3671 28 41246 10609 3.6 23 6 2 6 24% 9539 77833 15482 43%
c t 14.52 28 256 0 15 3671 28 41246 10609 3.6 23 6 2 6 24% 9522 77833 15482 43%
c c 14.60 28 256 0 15 3671 28 41246 10609 3.6 23 6 2 6 24% 9564 77664 15460 42%
c d 14.61 28 256 0 15 3671 28 41246 10571 3.6 23 6 2 6 24% 9520 77664 15460 42%
c u 14.66 28 256 0 15 3671 28 41246 10122 3.6 23 6 2 6 24% 9526 77664 15460 42%
c v 14.71 28 256 0 15 3671 28 41246 9612 3.6 23 6 2 6 24% 9529 77664 15460 42%
c w 14.79 28 256 0 15 3671 28 41246 9550 3.6 23 6 2 6 24% 9531 77664 15460 42%
c
c  seconds   switched     rate        size/glue tier1    binary         remaining
c         MB   reductions   conflicts       size  tier2     irredundant
c           level   restarts     redundant    glue   trail         variables
c
c x 14.85 28 256 0 15 3671 28 41246 9549 3.6 23 6 2 6 24% 9531 74675 15460 42%
c = 15.08 28 256 0 15 3671 28 41246 9549 3.6 23 6 2 6 24% 10779 74675 14836 41%
c d 15.09 28 256 0 15 3671 28 41246 9060 3.6 23 6 2 6 24% 9450 74675 14836 41%
c t 15.11 28 256 0 15 3671 28 41246 9060 3.6 23 6 2 6 24% 9415 74675 14836 41%
c f 15.13 28 256 0 15 3671 28 41246 9060 3.6 23 6 2 6 24% 9419 74655 14841 41%
c o 15.15 28 256 0 15 3671 28 41246 9060 3.6 23 6 2 6 24% 9419 74655 14841 41%
c - 15.22 28 256 0 16 3705 28 41477 8241 3.6 23 6 2 6 24% 9420 74655 14841 41%
c - 15.81 28 249 0 17 3979 27 45477 10513 3.5 23 6 2 6 23% 9468 74646 14841 41%
c - 16.42 28 246 0 18 4263 26 49600 11471 3.5 22 6 1 6 23% 9515 74644 14841 41%
c s 16.94 28 241 0 18 4480 26 52116 13702 3.5 22 6 1 6 23% 9540 71360 14841 41%
c e 17.05 28 241 0 18 4480 26 52116 13702 3.5 22 6 1 6 23% 8066 74032 13804 38%
c 2 17.05 28 241 0 18 4480 26 52116 13702 3.5 22 6 1 6 23% 8064 74032 13804 38%
c s 17.07 28 241 0 18 4480 26 52116 13702 3.5 22 6 1 6 23% 8078 73376 13804 38%
c e 17.08 28 241 0 18 4480 26 52116 13702 3.5 22 6 1 6 23% 8070 73385 13787 38%
c ^ 17.08 28 241 0 18 4480 26 52116 13702 3.5 22 6 1 6 23% 8070 73385 13787 38%
c - 17.55 28 236 0 19 4677 26 53842 11192 3.4 22 7 1 6 24% 8076 73383 13787 38%
c - 18.47 28 229 0 20 5081 25 58200 12612 3.3 22 7 1 6 24% 8125 73371 13787 38%
c d 18.59 28 229 0 20 5135 25 58889 13188 3.3 21 7 1 6 24% 8114 73371 13775 38%
c u 18.65 28 229 0 20 5135 25 58889 11650 3.3 21 7 1 6 24% 8130 73371 13775 38%
c v 18.73 28 229 0 20 5135 25 58889 9504 3.3 21 7 1 6 24% 8136 73371 13775 38%
c
c  seconds   switched     rate        size/glue tier1    binary         remaining
c         MB   reductions   conflicts       size  tier2     irredundant
c           level   restarts     redundant    glue   trail         variables
c
c w 18.77 28 229 0 20 5135 25 58889 9471 3.3 21 7 1 6 24% 8136 73371 13775 38%
c x 18.90 28 229 0 20 5135 25 58889 9469 3.3 21 7 1 6 24% 8149 71938 13775 38%
c d 19.23 28 229 0 20 5135 25 58889 9463 3.3 21 7 1 6 24% 8139 71938 13770 38%
c t 19.25 28 229 0 20 5135 25 58889 9463 3.3 21 7 1 6 24% 8124 71938 13770 38%
c f 19.30 28 229 0 20 5135 25 58889 9463 3.3 21 7 1 6 24% 8131 71881 13779 38%
c c 19.36 28 229 0 20 5135 25 58889 9445 3.3 21 7 1 6 24% 8178 71730 13757 38%
c d 19.36 28 229 0 20 5135 25 58889 9445 3.3 21 7 1 6 24% 8134 71730 13757 38%
c u 19.40 28 229 0 20 5135 25 58889 9196 3.3 21 7 1 6 24% 8135 71730 13757 38%
c v 19.45 28 229 0 20 5135 25 58889 8842 3.3 21 7 1 6 24% 8137 71730 13757 38%
c w 19.49 28 229 0 20 5135 25 58889 8818 3.3 21 7 1 6 24% 8137 71730 13757 38%
c x 19.63 28 229 0 20 5135 25 58889 8809 3.3 21 7 1 6 24% 8153 71124 13757 38%
c d 19.64 28 229 0 20 5135 25 58889 8806 3.3 21 7 1 6 24% 8147 71124 13754 38%
c t 19.65 28 229 0 20 5135 25 58889 8806 3.3 21 7 1 6 24% 8140 71124 13754 38%
c - 20.44 28 223 0 21 5524 25 62672 10169 3.2 21 7 1 6 24% 8175 71121 13754 38%
c - 21.39 28 216 0 22 5991 25 67254 12197 3.1 21 7 1 6 25% 8210 71119 13754 38%
c o 22.32 28 213 0 22 6451 25 71445 15817 3.1 21 7 1 6 25% 8265 71119 13754 38%
c - 22.42 28 212 0 23 6506 25 71945 13787 3.1 21 7 1 5 25% 8270 71119 13754 38%
c - 23.38 28 211 0 24 6987 25 76740 15071 3.1 21 7 1 5 25% 8354 71117 13754 38%
c c 24.36 28 207 0 24 7423 25 79978 18001 3.2 22 7 1 5 25% 8416 70709 13647 38%
c d 24.37 28 207 0 24 7423 25 79978 17633 3.2 22 7 1 5 25% 8202 70709 13647 38%
c
c  seconds   switched     rate         size/glue tier1    binary         remaining
c         MB   reductions   conflicts        size  tier2     irredundant
c           level   restarts      redundant    glue   trail         variables
c
c u 24.44 28 207 0 24 7423 25 79978 15874 3.2 22 7 1 5 25% 8211 70709 13647 38%
c v 24.53 28 207 0 24 7423 25 79978 13309 3.2 22 7 1 5 25% 8221 70709 13647 38%
c w 24.72 28 207 0 24 7423 25 79978 13279 3.2 22 7 1 5 25% 8221 70709 13647 38%
c x 24.81 28 207 0 24 7423 25 79978 13276 3.2 22 7 1 5 25% 8222 70477 13647 38%
c = 25.15 28 207 0 24 7423 25 79978 13276 3.2 22 7 1 5 25% 8294 70475 13611 37%
c d 25.15 28 207 0 24 7423 25 79978 13205 3.2 22 7 1 5 25% 8195 70475 13604 37%
c t 25.17 28 207 0 24 7423 25 79978 13205 3.2 22 7 1 5 25% 8189 70475 13604 37%
c f 25.19 28 207 0 24 7423 25 79978 13205 3.2 22 7 1 5 25% 8191 70462 13606 37%
c c 25.24 28 207 0 24 7423 25 79978 13191 3.2 22 7 1 5 25% 8198 70438 13603 37%
c d 25.25 28 207 0 24 7423 25 79978 13191 3.2 22 7 1 5 25% 8192 70438 13603 37%
c u 25.31 28 207 0 24 7423 25 79978 12828 3.2 22 7 1 5 25% 8195 70438 13603 37%
c v 25.37 28 207 0 24 7423 25 79978 12383 3.2 22 7 1 5 25% 8196 70438 13603 37%
c w 25.73 28 207 0 24 7423 25 79978 11978 3.2 22 7 1 5 25% 8196 70438 13603 37%
c = 26.22 28 207 0 24 7423 25 79978 11978 3.2 22 7 1 5 25% 8910 70434 13246 36%
c d 26.22 28 207 0 24 7423 25 79978 11761 3.2 22 7 1 5 25% 8150 70434 13246 36%
c t 26.24 28 207 0 24 7423 25 79978 11761 3.2 22 7 1 5 25% 8119 70434 13246 36%
c f 26.26 28 207 0 24 7423 25 79978 11761 3.2 22 7 1 5 25% 8127 70389 13252 36%
c - 26.73 28 205 0 25 7643 25 81638 11436 3.1 22 7 1 5 25% 8131 70388 13252 36%
c - 27.67 28 199 0 26 8109 25 86638 13828 3.1 21 7 1 5 26% 8162 70386 13252 36%
c - 28.47 28 194 0 27 8501 24 91737 15685 3.1 21 7 1 5 25% 8237 70383 13252 36%
c
c  seconds   switched     rate         size/glue tier1    binary         remaining
c         MB   reductions   conflicts        size  tier2     irredundant
c           level   restarts      redundant    glue   trail         variables
c
c s 29.32 28 190 0 27 8908 24 95830 19401 3.1 22 7 1 5 25% 8260 68901 13252 36%
c e 29.45 28 190 0 27 8908 24 95830 19401 3.1 22 7 1 5 25% 5468 76143 11730 32%
c 2 29.45 28 190 0 27 8908 24 95830 19401 3.1 22 7 1 5 25% 5466 76143 11730 32%
c s 29.47 28 190 0 27 8908 24 95830 19401 3.1 22 7 1 5 25% 5489 75347 11730 32%
c e 29.49 28 190 0 27 8908 24 95830 19401 3.1 22 7 1 5 25% 5461 75471 11693 32%
c ^ 29.49 28 190 0 27 8908 24 95830 19401 3.1 22 7 1 5 25% 5461 75471 11693 32%
c - 29.77 28 189 0 28 9040 24 96934 12765 3.1 22 7 1 5 25% 5471 75471 11693 32%
c - 30.99 28 184 0 29 9760 24 102226 15176 3.1 22 7 1 5 26% 5486 75469 11693 32%
c d 31.37 28 183 0 29 10086 24 104627 17298 3.1 22 7 1 5 26% 5473 75469 11676 32%
c u 31.41 28 183 0 29 10086 24 104627 15550 3.1 22 7 1 5 26% 5492 75469 11676 32%
c v 31.46 28 183 0 29 10086 24 104627 12943 3.1 22 7 1 5 26% 5498 75469 11676 32%
c w 31.58 28 183 0 29 10086 24 104627 12891 3.1 22 7 1 5 26% 5498 75469 11676 32%
c x 31.66 28 183 0 29 10086 24 104627 12889 3.1 22 7 1 5 26% 5519 74767 11676 32%
c = 32.04 28 183 0 29 10086 24 104627 12889 3.1 22 7 1 5 26% 5857 74749 11506 32%
c d 32.05 28 183 0 29 10086 24 104627 12663 3.1 22 7 1 5 26% 5477 74749 11506 32%
c t 32.06 28 183 0 29 10086 24 104627 12663 3.1 22 7 1 5 26% 5461 74749 11506 32%
c f 32.11 28 183 0 29 10086 24 104627 12663 3.1 22 7 1 5 26% 5486 74597 11519 32%
c u 32.17 28 183 0 29 10086 24 104627 12185 3.1 22 7 1 5 26% 5498 74597 11519 32%
c v 32.20 28 183 0 29 10086 24 104627 11704 3.1 22 7 1 5 26% 5499 74597 11519 32%
c w 32.34 28 183 0 29 10086 24 104627 11339 3.1 22 7 1 5 26% 5499 74597 11519 32%
c
c  seconds   switched      rate          size/glue tier1    binary         remaining
c         MB   reductions    conflicts         size  tier2     irredundant
c           level   restarts        redundant    glue   trail         variables
c
c x 32.40 28 183 0 29 10086 24 104627 11339 3.1 22 7 1 5 26% 5499 74573 11519 32%
c t 32.79 28 183 0 29 10086 24 104627 11339 3.1 22 7 1 5 26% 5498 74573 11519 32%
c - 33.20 28 181 0 30 10345 24 107612 12121 3.0 22 7 1 5 26% 5505 74572 11519 32%
c o 33.72 28 177 0 30 10752 24 111643 15895 3.0 22 7 1 5 26% 5508 74572 11519 32%
c - 33.93 28 176 0 31 10910 24 113090 14730 3.0 22 7 1 5 27% 5513 74571 11519 32%
c - 34.65 28 175 0 32 11406 23 118658 16898 3.0 22 7 1 5 27% 5527 74570 11519 32%
c - 35.44 28 172 0 33 11894 23 124314 18632 3.0 22 7 1 5 27% 5535 74570 11519 32%
c - 36.50 28 169 0 34 12468 23 130060 20223 3.0 23 8 1 5 27% 5546 74570 11519 32%
c d 37.10 28 168 0 34 12880 23 132901 22859 3.0 24 8 1 5 27% 5540 74569 11513 32%
c u 37.15 28 168 0 34 12880 23 132901 20641 3.0 24 8 1 5 27% 5556 74569 11513 32%
c v 37.24 28 168 0 34 12880 23 132901 17388 3.0 24 8 1 5 27% 5559 74569 11513 32%
c w 37.49 28 168 0 34 12880 23 132901 17280 3.0 24 8 1 5 27% 5559 74569 11513 32%
c d 37.49 28 168 0 34 12880 23 132901 17275 3.0 24 8 1 5 27% 5553 74569 11510 32%
c t 37.50 28 168 0 34 12880 23 132901 17275 3.0 24 8 1 5 27% 5540 74569 11510 32%
c f 37.51 28 168 0 34 12880 23 132901 17275 3.0 24 8 1 5 27% 5544 74547 11512 32%
c u 37.56 28 168 0 34 12880 23 132901 16578 3.0 24 8 1 5 27% 5549 74547 11512 32%
c v 37.60 28 168 0 34 12880 23 132901 15879 3.0 24 8 1 5 27% 5549 74547 11512 32%
c w 37.76 28 168 0 34 12880 23 132901 15505 3.0 24 8 1 5 27% 5549 74547 11512 32%
c x 37.86 28 168 0 34 12880 23 132901 15465 3.0 24 8 1 5 27% 5583 72371 11512 32%
c d 38.35 28 168 0 34 12880 23 132901 15464 3.0 24 8 1 5 27% 5581 72371 11511 32%
c
c  seconds   switched      rate          size/glue tier1    binary         remaining
c         MB   reductions    conflicts         size  tier2     irredundant
c           level   restarts        redundant    glue   trail         variables
c
c t 38.36 28 168 0 34 12880 23 132901 15464 3.0 24 8 1 5 27% 5559 72371 11511 32%
c - 38.82 28 167 0 35 13164 23 135891 15573 3.0 24 8 1 5 27% 5565 72370 11511 32%
c i 39.42 28 164 0 35 13593 23 141058 20161 3.0 23 8 1 5 27% 5603 72367 11510 32%
c - 39.55 28 164 0 36 13672 23 141807 17978 3.0 24 8 1 4 27% 5602 72365 11510 32%
c - 40.20 28 160 0 37 14193 22 147809 20075 3.0 24 8 1 4 27% 5627 72363 11510 32%
c i 40.27 28 159 0 37 14219 22 148802 20960 3.0 23 8 1 4 27% 5632 72363 11509 32%
c i 40.94 28 156 0 37 14746 22 153784 25563 3.0 24 8 1 4 27% 5650 72360 11493 32%
c i 40.94 28 156 0 37 14748 22 153796 25566 3.0 24 8 1 4 27% 5651 72360 11491 32%
c - 40.95 28 156 0 38 14751 22 153894 21237 3.0 24 8 1 4 27% 5634 72360 11491 32%
c i 41.03 28 156 0 38 14793 22 154419 21726 3.0 24 8 1 4 27% 5638 72360 11490 32%
c i 41.06 28 155 0 38 14812 22 154663 21932 3.0 24 8 1 4 27% 5641 72360 11489 32%
c i 41.24 28 155 0 38 14950 22 155885 23048 2.9 23 8 1 4 27% 5647 72359 11486 32%
c i 41.31 28 154 0 38 15009 22 156744 23819 2.9 23 8 1 4 27% 5655 72359 11485 32%
c i 41.32 28 154 0 38 15019 22 156937 23979 2.9 23 8 1 4 27% 5662 72358 11483 32%
c i 41.41 28 153 0 38 15077 21 157655 24625 2.9 23 8 1 4 27% 5668 72358 11480 32%
c s 41.44 28 153 0 38 15091 21 157949 24906 2.9 23 8 1 4 27% 5675 72131 11480 32%
c e 41.55 28 153 0 38 15091 21 157949 24906 2.9 23 8 1 4 27% 3092 84224 9805 27%
c 2 41.55 28 153 0 38 15091 21 157949 24906 2.9 23 8 1 4 27% 3087 84224 9805 27%
c s 41.58 28 153 0 38 15091 21 157949 24906 2.9 23 8 1 4 27% 3104 82920 9805 27%
c e 41.59 28 153 0 38 15091 21 157949 24906 2.9 23 8 1 4 27% 3065 83115 9764 27%
c
c  seconds   switched      rate          size/glue tier1    binary        remaining
c         MB   reductions    conflicts         size  tier2     irredundant
c           level   restarts        redundant    glue   trail        variables
c
c ^ 41.59 28 153 0 38 15091 21 157949 24906 2.9 23 8 1 4 27% 3065 83115 9764 27%
c i 41.63 28 153 0 38 15118 21 158255 17071 2.9 23 8 1 4 27% 3066 83114 9763 27%
c i 41.69 28 152 0 38 15174 21 158838 17587 2.9 23 8 1 4 27% 3074 83113 9757 27%
c - 41.80 28 151 0 39 15252 21 160058 15753 2.9 23 8 1 4 27% 3082 83047 9757 27%
c i 41.85 28 151 0 39 15287 21 160934 16508 2.9 23 8 1 4 26% 3089 83046 9756 27%
c i 41.88 28 150 0 39 15294 21 161442 16954 2.9 23 8 1 4 26% 3097 83046 9752 27%
c o 41.90 28 150 0 39 15313 21 161681 17174 2.9 23 8 1 4 26% 3097 83046 9752 27%
c i 42.25 28 148 0 39 15545 21 164641 19926 2.9 23 8 1 4 27% 3103 83046 9750 27%
c c 42.30 28 148 0 39 15552 21 164919 20174 2.9 23 8 1 4 26% 3097 82871 9731 27%
c d 42.30 28 148 0 39 15552 21 164919 19854 2.9 23 8 1 4 26% 3072 82861 9731 27%
c d 42.31 28 148 0 39 15552 21 164919 19853 2.9 23 8 1 4 26% 3062 82861 9726 27%
c u 42.35 28 148 0 39 15552 21 164919 17990 2.9 23 8 1 4 26% 3071 82861 9726 27%
c v 42.40 28 148 0 39 15552 21 164919 15397 2.9 23 8 1 4 26% 3072 82861 9726 27%
c w 42.49 28 148 0 39 15552 21 164919 15157 2.9 23 8 1 4 26% 3072 82861 9726 27%
c x 42.55 28 148 0 39 15552 21 164919 15156 2.9 23 8 1 4 26% 3073 82800 9726 27%
c d 42.56 28 148 0 39 15552 21 164919 15152 2.9 23 8 1 4 26% 3069 82792 9724 27%
c t 42.57 28 148 0 39 15552 21 164919 15152 2.9 23 8 1 4 26% 3043 82792 9724 27%
c b 42.57 28 148 0 39 15552 21 164919 15152 2.9 23 8 1 4 26% 3043 82792 9723 27%
c f 42.66 28 148 0 39 15552 21 164919 15152 2.9 23 8 1 4 26% 3079 82363 9743 27%
c u 42.70 28 148 0 39 15552 21 164919 14943 2.9 23 8 1 4 26% 3081 82357 9743 27%
c
c  seconds   switched      rate          size/glue tier1    binary        remaining
c         MB   reductions    conflicts         size  tier2     irredundant
c           level   restarts        redundant    glue   trail        variables
c
c v 42.73 28 148 0 39 15552 21 164919 14602 2.9 23 8 1 4 26% 3081 82357 9743 27%
c w 42.86 28 148 0 39 15552 21 164919 13854 2.9 23 8 1 4 26% 3081 82357 9743 27%
c - 42.94 28 147 0 40 15618 20 166303 12422 2.8 23 8 1 5 26% 3088 82357 9743 27%
c i 42.98 28 146 0 40 15709 20 167243 13243 2.8 23 8 1 5 26% 3098 82355 9742 27%
c - 43.10 28 140 0 41 15844 19 172627 14909 2.8 22 8 1 5 25% 3138 82351 9742 27%
c i 43.11 28 139 0 41 15853 19 172771 15035 2.8 22 8 1 5 25% 3138 82351 9740 27%
c i 43.12 28 138 0 41 15854 19 173444 15547 2.8 22 8 1 5 25% 3149 82351 9738 27%
c i 43.12 28 138 0 41 15854 19 173650 15693 2.8 22 8 1 5 25% 3157 82351 9737 27%
c i 43.12 28 138 0 41 15854 19 173687 15710 2.8 22 8 1 5 25% 3163 82351 9736 27%
c i 43.12 28 138 0 41 15854 19 173829 15804 2.8 22 8 1 5 25% 3174 82351 9735 27%
c i 43.12 28 138 0 41 15854 19 173863 15817 2.8 22 8 1 5 25% 3181 82351 9732 27%
c i 43.13 28 138 0 41 15855 19 173952 15890 2.8 22 8 1 5 25% 3186 82349 9731 27%
c } 43.13 28 138 0 41 15855 19 173975 15897 2.8 22 8 1 5 25% 3193 82349 9727 27%
c 0 43.13 28 138 0 41 15855 19 173975 15897 2.8 22 8 1 5 25% 3193 82349 9727 27%
c
c ---- [ result ] ------------------------------------------------------------
c
s UNSATISFIABLE
c
c ---- [ profiling ] ---------------------------------------------------------
c
c          30.44   70.58 %  search
c          30.44   70.58 %  focused
c          12.11   28.07 %  simplify
c          11.46   26.57 %  probe
c           4.85   11.24 %  vivify
c           4.30    9.97 %  sweep
c           0.97    2.25 %  eliminate
c           0.87    2.02 %  factor
c           0.61    1.41 %  congruence
c           0.60    1.40 %  substitute
c           0.49    1.14 %  preprocess
c           0.25    0.58 %  reduce
c           0.18    0.41 %  subsume
c           0.16    0.37 %  fastel
c           0.15    0.35 %  transitive
c           0.08    0.18 %  backbone
c           0.05    0.12 %  lucky
c           0.04    0.09 %  parse
c =============================================
c          43.13  100.00 %  total
c
c ---- [ statistics ] --------------------------------------------------------
c
c chronological:                         5632                3 %  conflicts
c conflicts:                           173975             4034.09 per second
c congruent:                             3806               10 %  variables
c decisions:                          3573062               20.54 per conflict
c eliminated:                           20090               55 %  variables
c factored:                              3870               11 %  variables
c fast_eliminated:                      11192               56 %  eliminated
c fast_strengthened:                        7                0 %  per strengthened
c fast_subsumed:                           56                0 %  per subsumed
c iterations:                              24                0 %  variables
c propagations:                     153452176          3558211    per second
c reductions:                              41             4243    interval
c reordered:                                6            28996    interval
c restarts:                             15855               11    interval
c strengthened:                          5789                0 %  checks
c substituted:                          10365               28 %  variables
c subsumed:                             15626                0 %  checks
c switched:                                 0                0    interval
c vivified:                             84305               13 %  checks
c
c ---- [ glue usage ] --------------------------------------------------------
c
c focused glue 1 used 307539 clauses 61.04% accumulated 61.04% tier1
c focused glue 2 used  95980 clauses 19.05% accumulated 80.09%
c focused glue 3 used  30277 clauses  6.01% accumulated 86.10%
c focused glue 4 used  17886 clauses  3.55% accumulated 89.65%
c focused glue 5 used  11494 clauses  2.28% accumulated 91.93% tier2
c
c ---- [ resources ] ---------------------------------------------------------
c
c maximum-resident-set-size:         31195136 bytes         30 MB
c process-time:                            43s              43.13 seconds
c
c ---- [ shutting down ] -----------------------------------------------------
c
c exit 20
